NAME : sim33.58207.tour
COMMENT : Length = 58207
COMMENT : Found by LKH [Keld Helsgaun] Fri Sep 14 11:48:30 2018
TYPE : TOUR
DIMENSION : 33
TOUR_SECTION
1
6
26
12
33
8
5
17
10
24
29
22
16
18
20
3
4
7
11
28
25
31
9
14
13
32
19
15
2
23
30
21
27
-1
EOF
